
Gurobi 12.0.3 (win64) logging started Mon Jul 28 14:58:37 2025

Set parameter LogFile to value "Output/Logs\instance_2.log"
Set parameter TimeLimit to value 3600
Set parameter Seed to value 12345
Gurobi Optimizer version 12.0.3 build v12.0.3rc0 (win64 - Windows 11.0 (26100.2))

CPU model: Intel(R) Core(TM) i5-10310U CPU @ 1.70GHz, instruction set [SSE2|AVX|AVX2]
Thread count: 4 physical cores, 8 logical processors, using up to 8 threads

Non-default parameters:
TimeLimit  3600
Seed  12345

Optimize a model with 5 rows, 10 columns and 16 nonzeros
Model fingerprint: 0xed29aca0
Variable types: 0 continuous, 10 integer (10 binary)
Coefficient statistics:
  Matrix range     [1e+00, 1e+00]
  Objective range  [2e+01, 1e+02]
  Bounds range     [1e+00, 1e+00]
  RHS range        [1e+00, 1e+00]
Found heuristic solution: objective 165.0000000
Presolve removed 2 rows and 4 columns
Presolve time: 0.00s
Presolved: 3 rows, 6 columns, 9 nonzeros
Found heuristic solution: objective 144.0000000
Variable types: 0 continuous, 6 integer (6 binary)

Root relaxation: objective 1.030000e+02, 2 iterations, 0.00 seconds (0.00 work units)

    Nodes    |    Current Node    |     Objective Bounds      |     Work
 Expl Unexpl |  Obj  Depth IntInf | Incumbent    BestBd   Gap | It/Node Time

*    0     0               0     103.0000000  103.00000  0.00%     -    0s

Explored 1 nodes (2 simplex iterations) in 0.00 seconds (0.00 work units)
Thread count was 8 (of 8 available processors)

Solution count 3: 103 144 165 

Optimal solution found (tolerance 1.00e-04)
Best objective 1.030000000000e+02, best bound 1.030000000000e+02, gap 0.0000%
Deliveries count: 5
Feasible trips generated: 10
Trips selected: 3
Elapsed time (seconds): 0.01

Gurobi 12.0.3 (win64) logging started Mon Jul 28 14:59:01 2025

Set parameter LogFile to value "Output/Logs\instance_2.log"
Set parameter TimeLimit to value 3600
Set parameter Seed to value 12345
Gurobi Optimizer version 12.0.3 build v12.0.3rc0 (win64 - Windows 11.0 (26100.2))

CPU model: Intel(R) Core(TM) i5-10310U CPU @ 1.70GHz, instruction set [SSE2|AVX|AVX2]
Thread count: 4 physical cores, 8 logical processors, using up to 8 threads

Non-default parameters:
TimeLimit  3600
Seed  12345

Optimize a model with 5 rows, 10 columns and 16 nonzeros
Model fingerprint: 0xed29aca0
Variable types: 0 continuous, 10 integer (10 binary)
Coefficient statistics:
  Matrix range     [1e+00, 1e+00]
  Objective range  [2e+01, 1e+02]
  Bounds range     [1e+00, 1e+00]
  RHS range        [1e+00, 1e+00]
Found heuristic solution: objective 165.0000000
Presolve removed 2 rows and 4 columns
Presolve time: 0.00s
Presolved: 3 rows, 6 columns, 9 nonzeros
Found heuristic solution: objective 144.0000000
Variable types: 0 continuous, 6 integer (6 binary)

Root relaxation: objective 1.030000e+02, 2 iterations, 0.00 seconds (0.00 work units)

    Nodes    |    Current Node    |     Objective Bounds      |     Work
 Expl Unexpl |  Obj  Depth IntInf | Incumbent    BestBd   Gap | It/Node Time

*    0     0               0     103.0000000  103.00000  0.00%     -    0s

Explored 1 nodes (2 simplex iterations) in 0.00 seconds (0.00 work units)
Thread count was 8 (of 8 available processors)

Solution count 3: 103 144 165 

Optimal solution found (tolerance 1.00e-04)
Best objective 1.030000000000e+02, best bound 1.030000000000e+02, gap 0.0000%
Deliveries count: 5
Feasible trips generated: 10
Trips selected: 3
Elapsed time (seconds): 0.01

Gurobi 12.0.3 (win64) logging started Mon Jul 28 14:59:28 2025

Set parameter LogFile to value "Output/Logs\instance_2.log"
Set parameter TimeLimit to value 3600
Set parameter Seed to value 12345
Gurobi Optimizer version 12.0.3 build v12.0.3rc0 (win64 - Windows 11.0 (26100.2))

CPU model: Intel(R) Core(TM) i5-10310U CPU @ 1.70GHz, instruction set [SSE2|AVX|AVX2]
Thread count: 4 physical cores, 8 logical processors, using up to 8 threads

Non-default parameters:
TimeLimit  3600
Seed  12345

Optimize a model with 5 rows, 10 columns and 16 nonzeros
Model fingerprint: 0xed29aca0
Variable types: 0 continuous, 10 integer (10 binary)
Coefficient statistics:
  Matrix range     [1e+00, 1e+00]
  Objective range  [2e+01, 1e+02]
  Bounds range     [1e+00, 1e+00]
  RHS range        [1e+00, 1e+00]
Found heuristic solution: objective 165.0000000
Presolve removed 2 rows and 4 columns
Presolve time: 0.00s
Presolved: 3 rows, 6 columns, 9 nonzeros
Found heuristic solution: objective 144.0000000
Variable types: 0 continuous, 6 integer (6 binary)

Root relaxation: objective 1.030000e+02, 2 iterations, 0.00 seconds (0.00 work units)

    Nodes    |    Current Node    |     Objective Bounds      |     Work
 Expl Unexpl |  Obj  Depth IntInf | Incumbent    BestBd   Gap | It/Node Time

*    0     0               0     103.0000000  103.00000  0.00%     -    0s

Explored 1 nodes (2 simplex iterations) in 0.00 seconds (0.00 work units)
Thread count was 8 (of 8 available processors)

Solution count 3: 103 144 165 

Optimal solution found (tolerance 1.00e-04)
Best objective 1.030000000000e+02, best bound 1.030000000000e+02, gap 0.0000%
Deliveries count: 5
Feasible trips generated: 10
Trips selected: 3
Elapsed time (seconds): 0.01

Gurobi 12.0.3 (win64) logging started Mon Jul 28 14:59:57 2025

Set parameter LogFile to value "Output/Logs\instance_2.log"
Set parameter TimeLimit to value 3600
Set parameter Seed to value 12345
Gurobi Optimizer version 12.0.3 build v12.0.3rc0 (win64 - Windows 11.0 (26100.2))

CPU model: Intel(R) Core(TM) i5-10310U CPU @ 1.70GHz, instruction set [SSE2|AVX|AVX2]
Thread count: 4 physical cores, 8 logical processors, using up to 8 threads

Non-default parameters:
TimeLimit  3600
Seed  12345

Optimize a model with 5 rows, 10 columns and 16 nonzeros
Model fingerprint: 0xed29aca0
Variable types: 0 continuous, 10 integer (10 binary)
Coefficient statistics:
  Matrix range     [1e+00, 1e+00]
  Objective range  [2e+01, 1e+02]
  Bounds range     [1e+00, 1e+00]
  RHS range        [1e+00, 1e+00]
Found heuristic solution: objective 165.0000000
Presolve removed 2 rows and 4 columns
Presolve time: 0.00s
Presolved: 3 rows, 6 columns, 9 nonzeros
Found heuristic solution: objective 144.0000000
Variable types: 0 continuous, 6 integer (6 binary)

Root relaxation: objective 1.030000e+02, 2 iterations, 0.00 seconds (0.00 work units)

    Nodes    |    Current Node    |     Objective Bounds      |     Work
 Expl Unexpl |  Obj  Depth IntInf | Incumbent    BestBd   Gap | It/Node Time

*    0     0               0     103.0000000  103.00000  0.00%     -    0s

Explored 1 nodes (2 simplex iterations) in 0.00 seconds (0.00 work units)
Thread count was 8 (of 8 available processors)

Solution count 3: 103 144 165 

Optimal solution found (tolerance 1.00e-04)
Best objective 1.030000000000e+02, best bound 1.030000000000e+02, gap 0.0000%
Deliveries count: 5
Feasible trips generated: 10
Trips selected: 3
Elapsed time (seconds): 0.00

Gurobi 12.0.3 (win64) logging started Mon Jul 28 15:03:57 2025

Set parameter LogFile to value "Output/Logs\instance_2.log"
Set parameter TimeLimit to value 3600
Set parameter Seed to value 12345
Gurobi Optimizer version 12.0.3 build v12.0.3rc0 (win64 - Windows 11.0 (26100.2))

CPU model: Intel(R) Core(TM) i5-10310U CPU @ 1.70GHz, instruction set [SSE2|AVX|AVX2]
Thread count: 4 physical cores, 8 logical processors, using up to 8 threads

Non-default parameters:
TimeLimit  3600
Seed  12345

Optimize a model with 5 rows, 10 columns and 16 nonzeros
Model fingerprint: 0x11e20749
Variable types: 0 continuous, 10 integer (10 binary)
Coefficient statistics:
  Matrix range     [1e+00, 1e+00]
  Objective range  [1e+01, 8e+01]
  Bounds range     [1e+00, 1e+00]
  RHS range        [1e+00, 1e+00]
Found heuristic solution: objective 165.0000000
Presolve removed 2 rows and 3 columns
Presolve time: 0.00s
Presolved: 3 rows, 7 columns, 12 nonzeros
Found heuristic solution: objective 133.5000000
Variable types: 0 continuous, 7 integer (7 binary)

Root relaxation: objective 5.916667e+01, 2 iterations, 0.00 seconds (0.00 work units)

    Nodes    |    Current Node    |     Objective Bounds      |     Work
 Expl Unexpl |  Obj  Depth IntInf | Incumbent    BestBd   Gap | It/Node Time

*    0     0               0      59.1666667   59.16667  0.00%     -    0s

Explored 1 nodes (2 simplex iterations) in 0.00 seconds (0.00 work units)
Thread count was 8 (of 8 available processors)

Solution count 3: 59.1667 133.5 165 

Optimal solution found (tolerance 1.00e-04)
Best objective 5.916666666667e+01, best bound 5.916666666667e+01, gap 0.0000%
Deliveries count: 5
Feasible trips generated: 10
Trips selected: 2
Elapsed time (seconds): 0.01
